DIMENSION: 6
EDGE_WEIGHT_TYPE: EXPLICIT
EDGE_WEIGHT_FORMAT: FULL_MATRIX
EDGE_WEIGHT_SECTION:
32767 32767 92 98 56 61 
32767 32767 85 21 37 32767 
92 85 32767 81 20 32767 
98 21 81 32767 32767 3 
56 37 20 32767 32767 91 
61 32767 32767 3 91 32767 
EOF